[[89, 90, 99, 98, 97, 88, 87, 96, 86, 95, 94, 93, 92, 91, 83, 82, 73, 84, 85, 76, 75, 77], [68, 67, 66, 59, 58, 57, 56, 65, 74, 64, 55, 46, 47, 49, 50, 48], [39, 38, 40, 41, 32, 31, 30, 29, 37, 28, 19, 20, 21, 22, 13, 12, 11, 10, 2, 3, 4], [14, 5, 15, 6, 7, 8, 9, 18, 17, 16, 23, 24, 25, 26, 27, 35, 36, 44, 34, 43, 33, 42], [45, 54, 53, 52, 51, 60, 61, 62, 63, 72, 71, 70, 69, 78, 80, 81, 79]]